# Objective value = 8.2449483970064648e+01
x[0,1,1] 0
x[0,1,2] 0
x[0,1,3] 0
x[0,1,4] 0
x[0,1,5] 0
x[0,2,1] 0
x[0,2,2] 0
x[0,2,3] 0
x[0,2,4] 0
x[0,2,5] 0
x[0,3,1] 0
x[0,3,2] 0
x[0,3,3] 0
x[0,3,4] 1.0000000000000002e+00
x[0,3,5] 0
x[0,4,1] 0
x[0,4,2] 0
x[0,4,3] 0
x[0,4,4] 0
x[0,4,5] 0
x[0,5,1] 0
x[0,5,2] 0
x[0,5,3] 0
x[0,5,4] 0
x[0,5,5] 0
x[0,6,1] 0
x[0,6,2] 0
x[0,6,3] 1
x[0,6,4] 0
x[0,6,5] 2.2204460492503131e-16
x[0,7,1] 0
x[0,7,2] 0
x[0,7,3] 0
x[0,7,4] 0
x[0,7,5] 0
x[0,8,1] 0
x[0,8,2] 0
x[0,8,3] 0
x[0,8,4] 0
x[0,8,5] 0
x[0,9,1] 0
x[0,9,2] 0
x[0,9,3] 0
x[0,9,4] 0
x[0,9,5] 0
x[0,10,1] 0
x[0,10,2] 0
x[0,10,3] 0
x[0,10,4] 0
x[0,10,5] 0
x[0,11,1] 0
x[0,11,2] 0
x[0,11,3] 0
x[0,11,4] 0
x[0,11,5] 0
x[0,12,1] 0
x[0,12,2] 0
x[0,12,3] 0
x[0,12,4] 0
x[0,12,5] 0
x[0,13,1] 0
x[0,13,2] 0
x[0,13,3] 0
x[0,13,4] 0
x[0,13,5] 0
x[0,14,1] 0
x[0,14,2] 0
x[0,14,3] 0
x[0,14,4] 0
x[0,14,5] 0
x[0,15,1] 0
x[0,15,2] 0
x[0,15,3] 2.2204460492503131e-16
x[0,15,4] 0
x[0,15,5] 0
x[0,16,1] 1
x[0,16,2] 1
x[0,16,3] -2.2204460492503131e-16
x[0,16,4] 0
x[0,16,5] 9.9999999999999989e-01
x[1,2,1] 0
x[1,2,2] 0
x[1,2,3] 0
x[1,2,4] 0
x[1,2,5] 0
x[1,3,1] 0
x[1,3,2] 0
x[1,3,3] 0
x[1,3,4] 0
x[1,3,5] 0
x[1,4,1] 0
x[1,4,2] 0
x[1,4,3] 0
x[1,4,4] 0
x[1,4,5] 0
x[1,5,1] 0
x[1,5,2] 0
x[1,5,3] 0
x[1,5,4] 0
x[1,5,5] 0
x[1,6,1] 0
x[1,6,2] 0
x[1,6,3] 0
x[1,6,4] 0
x[1,6,5] 0
x[1,7,1] 0
x[1,7,2] 0
x[1,7,3] 0
x[1,7,4] 0
x[1,7,5] 0
x[1,8,1] 0
x[1,8,2] 0
x[1,8,3] 0
x[1,8,4] 0
x[1,8,5] 0
x[1,9,1] 0
x[1,9,2] 0
x[1,9,3] 0
x[1,9,4] 0
x[1,9,5] 0
x[1,10,1] 0
x[1,10,2] 0
x[1,10,3] 0
x[1,10,4] 0
x[1,10,5] 0
x[1,11,1] 0
x[1,11,2] 0
x[1,11,3] 0
x[1,11,4] 0
x[1,11,5] 0
x[1,12,1] 0
x[1,12,2] 0
x[1,12,3] 0
x[1,12,4] 0
x[1,12,5] 0
x[1,13,1] 0
x[1,13,2] 0
x[1,13,3] 0
x[1,13,4] 0
x[1,13,5] 0
x[1,14,1] 0
x[1,14,2] 0
x[1,14,3] 0
x[1,14,4] 0
x[1,14,5] 0
x[1,15,1] 0
x[1,15,2] 0
x[1,15,3] 0
x[1,15,4] 0
x[1,15,5] 0
x[1,16,1] 0
x[1,16,2] 0
x[1,16,3] 0
x[1,16,4] 1
x[1,16,5] 0
x[2,1,1] 0
x[2,1,2] 0
x[2,1,3] 0
x[2,1,4] 0
x[2,1,5] 0
x[2,3,1] 0
x[2,3,2] 0
x[2,3,3] 0
x[2,3,4] 0
x[2,3,5] 0
x[2,4,1] 0
x[2,4,2] 0
x[2,4,3] 1
x[2,4,4] 0
x[2,4,5] 0
x[2,5,1] 0
x[2,5,2] 0
x[2,5,3] 0
x[2,5,4] 0
x[2,5,5] 0
x[2,6,1] 0
x[2,6,2] 0
x[2,6,3] 0
x[2,6,4] 0
x[2,6,5] 0
x[2,7,1] 0
x[2,7,2] 0
x[2,7,3] 0
x[2,7,4] 0
x[2,7,5] 0
x[2,8,1] 0
x[2,8,2] 0
x[2,8,3] 0
x[2,8,4] 0
x[2,8,5] 0
x[2,9,1] 0
x[2,9,2] 0
x[2,9,3] 0
x[2,9,4] 0
x[2,9,5] 0
x[2,10,1] 0
x[2,10,2] 0
x[2,10,3] 0
x[2,10,4] 0
x[2,10,5] 0
x[2,11,1] 0
x[2,11,2] 0
x[2,11,3] 0
x[2,11,4] 0
x[2,11,5] 0
x[2,12,1] 0
x[2,12,2] 0
x[2,12,3] 0
x[2,12,4] 0
x[2,12,5] 0
x[2,13,1] 0
x[2,13,2] 0
x[2,13,3] 0
x[2,13,4] 0
x[2,13,5] 0
x[2,14,1] 0
x[2,14,2] 0
x[2,14,3] 0
x[2,14,4] 0
x[2,14,5] 0
x[2,15,1] 0
x[2,15,2] 0
x[2,15,3] 0
x[2,15,4] 0
x[2,15,5] 0
x[2,16,1] 0
x[2,16,2] 0
x[2,16,3] 0
x[2,16,4] 0
x[2,16,5] 0
x[3,1,1] 0
x[3,1,2] 0
x[3,1,3] 0
x[3,1,4] 0
x[3,1,5] 0
x[3,2,1] 0
x[3,2,2] 0
x[3,2,3] 0
x[3,2,4] 0
x[3,2,5] 0
x[3,4,1] 0
x[3,4,2] 0
x[3,4,3] 0
x[3,4,4] 0
x[3,4,5] 0
x[3,5,1] 0
x[3,5,2] 0
x[3,5,3] 0
x[3,5,4] 0
x[3,5,5] 0
x[3,6,1] 0
x[3,6,2] 0
x[3,6,3] 0
x[3,6,4] 0
x[3,6,5] 0
x[3,7,1] 0
x[3,7,2] 0
x[3,7,3] 0
x[3,7,4] 0
x[3,7,5] 0
x[3,8,1] 0
x[3,8,2] 0
x[3,8,3] 0
x[3,8,4] 0
x[3,8,5] 0
x[3,9,1] 0
x[3,9,2] 0
x[3,9,3] 0
x[3,9,4] 0
x[3,9,5] 0
x[3,10,1] 0
x[3,10,2] 0
x[3,10,3] 0
x[3,10,4] 0
x[3,10,5] 0
x[3,11,1] 0
x[3,11,2] 0
x[3,11,3] 0
x[3,11,4] 0
x[3,11,5] 0
x[3,12,1] 0
x[3,12,2] 0
x[3,12,3] 0
x[3,12,4] 1.0000000000000002e+00
x[3,12,5] 0
x[3,13,1] 0
x[3,13,2] 0
x[3,13,3] 0
x[3,13,4] 0
x[3,13,5] 0
x[3,14,1] 0
x[3,14,2] 0
x[3,14,3] 0
x[3,14,4] 0
x[3,14,5] 0
x[3,15,1] 0
x[3,15,2] 0
x[3,15,3] 0
x[3,15,4] 0
x[3,15,5] 0
x[3,16,1] 0
x[3,16,2] 0
x[3,16,3] 0
x[3,16,4] 0
x[3,16,5] 0
x[4,1,1] 0
x[4,1,2] 0
x[4,1,3] 0
x[4,1,4] 0
x[4,1,5] 0
x[4,2,1] 0
x[4,2,2] 0
x[4,2,3] 0
x[4,2,4] 0
x[4,2,5] 0
x[4,3,1] 0
x[4,3,2] 0
x[4,3,3] 0
x[4,3,4] 0
x[4,3,5] 0
x[4,5,1] 0
x[4,5,2] 0
x[4,5,3] 0
x[4,5,4] 0
x[4,5,5] 0
x[4,6,1] 0
x[4,6,2] 0
x[4,6,3] -1.1102230246251565e-16
x[4,6,4] 0
x[4,6,5] 0
x[4,7,1] 0
x[4,7,2] 0
x[4,7,3] 0
x[4,7,4] 0
x[4,7,5] 0
x[4,8,1] 0
x[4,8,2] 0
x[4,8,3] 0
x[4,8,4] 0
x[4,8,5] 0
x[4,9,1] 0
x[4,9,2] 0
x[4,9,3] 0
x[4,9,4] 0
x[4,9,5] 0
x[4,10,1] 0
x[4,10,2] 0
x[4,10,3] 0
x[4,10,4] 0
x[4,10,5] 0
x[4,11,1] 0
x[4,11,2] 0
x[4,11,3] 0
x[4,11,4] 0
x[4,11,5] 0
x[4,12,1] 0
x[4,12,2] 0
x[4,12,3] 0
x[4,12,4] 0
x[4,12,5] 0
x[4,13,1] 0
x[4,13,2] 0
x[4,13,3] 0
x[4,13,4] 0
x[4,13,5] 0
x[4,14,1] 0
x[4,14,2] 0
x[4,14,3] 0
x[4,14,4] 0
x[4,14,5] 0
x[4,15,1] 0
x[4,15,2] 0
x[4,15,3] 0
x[4,15,4] 0
x[4,15,5] 0
x[4,16,1] 0
x[4,16,2] 0
x[4,16,3] 1.0000000000000002e+00
x[4,16,4] 0
x[4,16,5] 0
x[5,1,1] 0
x[5,1,2] 0
x[5,1,3] 0
x[5,1,4] 0
x[5,1,5] 0
x[5,2,1] 0
x[5,2,2] 0
x[5,2,3] 0
x[5,2,4] 0
x[5,2,5] 0
x[5,3,1] 0
x[5,3,2] 0
x[5,3,3] 0
x[5,3,4] 0
x[5,3,5] 0
x[5,4,1] 0
x[5,4,2] 0
x[5,4,3] 0
x[5,4,4] 0
x[5,4,5] 0
x[5,6,1] 0
x[5,6,2] 0
x[5,6,3] 0
x[5,6,4] 0
x[5,6,5] 0
x[5,7,1] 0
x[5,7,2] 0
x[5,7,3] 0
x[5,7,4] 0
x[5,7,5] 0
x[5,8,1] 0
x[5,8,2] 0
x[5,8,3] 0
x[5,8,4] 0
x[5,8,5] 0
x[5,9,1] 0
x[5,9,2] 0
x[5,9,3] 0
x[5,9,4] 1
x[5,9,5] 0
x[5,10,1] 0
x[5,10,2] 0
x[5,10,3] 0
x[5,10,4] 0
x[5,10,5] 0
x[5,11,1] 0
x[5,11,2] 0
x[5,11,3] 0
x[5,11,4] 0
x[5,11,5] 0
x[5,12,1] 0
x[5,12,2] 0
x[5,12,3] 0
x[5,12,4] 0
x[5,12,5] 0
x[5,13,1] 0
x[5,13,2] 0
x[5,13,3] 0
x[5,13,4] 0
x[5,13,5] 0
x[5,14,1] 0
x[5,14,2] 0
x[5,14,3] 0
x[5,14,4] 0
x[5,14,5] 0
x[5,15,1] 0
x[5,15,2] 0
x[5,15,3] 0
x[5,15,4] 0
x[5,15,5] 0
x[5,16,1] 0
x[5,16,2] 0
x[5,16,3] 0
x[5,16,4] 0
x[5,16,5] 0
x[6,1,1] 0
x[6,1,2] 0
x[6,1,3] 0
x[6,1,4] 0
x[6,1,5] 0
x[6,2,1] 0
x[6,2,2] 0
x[6,2,3] 0
x[6,2,4] 0
x[6,2,5] 0
x[6,3,1] 0
x[6,3,2] 0
x[6,3,3] 0
x[6,3,4] 0
x[6,3,5] 0
x[6,4,1] 0
x[6,4,2] 0
x[6,4,3] 0
x[6,4,4] 0
x[6,4,5] 0
x[6,5,1] 0
x[6,5,2] 0
x[6,5,3] 0
x[6,5,4] 0
x[6,5,5] 0
x[6,7,1] 0
x[6,7,2] 0
x[6,7,3] 0
x[6,7,4] 0
x[6,7,5] 0
x[6,8,1] 0
x[6,8,2] 0
x[6,8,3] 0
x[6,8,4] 0
x[6,8,5] 0
x[6,9,1] 0
x[6,9,2] 0
x[6,9,3] 0
x[6,9,4] 0
x[6,9,5] 0
x[6,10,1] 0
x[6,10,2] 0
x[6,10,3] 0
x[6,10,4] 0
x[6,10,5] 0
x[6,11,1] 0
x[6,11,2] 0
x[6,11,3] 0
x[6,11,4] 0
x[6,11,5] 0
x[6,12,1] 0
x[6,12,2] 0
x[6,12,3] 0
x[6,12,4] 0
x[6,12,5] 0
x[6,13,1] 0
x[6,13,2] 0
x[6,13,3] 0
x[6,13,4] 0
x[6,13,5] 0
x[6,14,1] 0
x[6,14,2] 0
x[6,14,3] 0
x[6,14,4] 0
x[6,14,5] 0
x[6,15,1] 0
x[6,15,2] 0
x[6,15,3] 1
x[6,15,4] 0
x[6,15,5] 0
x[6,16,1] 0
x[6,16,2] 0
x[6,16,3] 0
x[6,16,4] 0
x[6,16,5] 2.2204460492503131e-16
x[7,1,1] 0
x[7,1,2] 0
x[7,1,3] 0
x[7,1,4] 1.0000000000000002e+00
x[7,1,5] 0
x[7,2,1] 0
x[7,2,2] 0
x[7,2,3] 0
x[7,2,4] 0
x[7,2,5] 0
x[7,3,1] 0
x[7,3,2] 0
x[7,3,3] 0
x[7,3,4] 0
x[7,3,5] 0
x[7,4,1] 0
x[7,4,2] 0
x[7,4,3] 0
x[7,4,4] 0
x[7,4,5] 0
x[7,5,1] 0
x[7,5,2] 0
x[7,5,3] 0
x[7,5,4] 0
x[7,5,5] 0
x[7,6,1] 0
x[7,6,2] 0
x[7,6,3] 0
x[7,6,4] 0
x[7,6,5] 0
x[7,8,1] 0
x[7,8,2] 0
x[7,8,3] 0
x[7,8,4] 0
x[7,8,5] 0
x[7,9,1] 0
x[7,9,2] 0
x[7,9,3] 0
x[7,9,4] 0
x[7,9,5] 0
x[7,10,1] 0
x[7,10,2] 0
x[7,10,3] 0
x[7,10,4] 0
x[7,10,5] 0
x[7,11,1] 0
x[7,11,2] 0
x[7,11,3] 0
x[7,11,4] 0
x[7,11,5] 0
x[7,12,1] 0
x[7,12,2] 0
x[7,12,3] 0
x[7,12,4] 0
x[7,12,5] 0
x[7,13,1] 0
x[7,13,2] 0
x[7,13,3] 0
x[7,13,4] 0
x[7,13,5] 0
x[7,14,1] 0
x[7,14,2] 0
x[7,14,3] 0
x[7,14,4] 0
x[7,14,5] 0
x[7,15,1] 0
x[7,15,2] 0
x[7,15,3] 0
x[7,15,4] 0
x[7,15,5] 0
x[7,16,1] 0
x[7,16,2] 0
x[7,16,3] 0
x[7,16,4] 0
x[7,16,5] 0
x[8,1,1] 0
x[8,1,2] 0
x[8,1,3] 0
x[8,1,4] 0
x[8,1,5] 0
x[8,2,1] 0
x[8,2,2] 0
x[8,2,3] 0
x[8,2,4] 0
x[8,2,5] 0
x[8,3,1] 0
x[8,3,2] 0
x[8,3,3] 0
x[8,3,4] 0
x[8,3,5] 0
x[8,4,1] 0
x[8,4,2] 0
x[8,4,3] 0
x[8,4,4] 0
x[8,4,5] 0
x[8,5,1] 0
x[8,5,2] 0
x[8,5,3] 0
x[8,5,4] 0
x[8,5,5] 0
x[8,6,1] 0
x[8,6,2] 0
x[8,6,3] 0
x[8,6,4] 0
x[8,6,5] 0
x[8,7,1] 0
x[8,7,2] 0
x[8,7,3] 0
x[8,7,4] 0
x[8,7,5] 0
x[8,9,1] 0
x[8,9,2] 0
x[8,9,3] 0
x[8,9,4] 0
x[8,9,5] 0
x[8,10,1] 0
x[8,10,2] 0
x[8,10,3] 0
x[8,10,4] 1
x[8,10,5] 0
x[8,11,1] 0
x[8,11,2] 0
x[8,11,3] 0
x[8,11,4] 0
x[8,11,5] 0
x[8,12,1] 0
x[8,12,2] 0
x[8,12,3] 0
x[8,12,4] 0
x[8,12,5] 0
x[8,13,1] 0
x[8,13,2] 0
x[8,13,3] 0
x[8,13,4] 0
x[8,13,5] 0
x[8,14,1] 0
x[8,14,2] 0
x[8,14,3] 0
x[8,14,4] 0
x[8,14,5] 0
x[8,15,1] 0
x[8,15,2] 0
x[8,15,3] 0
x[8,15,4] 0
x[8,15,5] 0
x[8,16,1] 0
x[8,16,2] 0
x[8,16,3] 0
x[8,16,4] 0
x[8,16,5] 0
x[9,1,1] 0
x[9,1,2] 0
x[9,1,3] 0
x[9,1,4] 0
x[9,1,5] 0
x[9,2,1] 0
x[9,2,2] 0
x[9,2,3] 0
x[9,2,4] 0
x[9,2,5] 0
x[9,3,1] 0
x[9,3,2] 0
x[9,3,3] 0
x[9,3,4] 0
x[9,3,5] 0
x[9,4,1] 0
x[9,4,2] 0
x[9,4,3] 0
x[9,4,4] 0
x[9,4,5] 0
x[9,5,1] 0
x[9,5,2] 0
x[9,5,3] 0
x[9,5,4] 0
x[9,5,5] 0
x[9,6,1] 0
x[9,6,2] 0
x[9,6,3] 0
x[9,6,4] 0
x[9,6,5] 0
x[9,7,1] 0
x[9,7,2] 0
x[9,7,3] 0
x[9,7,4] 1.0000000000000002e+00
x[9,7,5] 0
x[9,8,1] 0
x[9,8,2] 0
x[9,8,3] 0
x[9,8,4] 0
x[9,8,5] 0
x[9,10,1] 0
x[9,10,2] 0
x[9,10,3] 0
x[9,10,4] 0
x[9,10,5] 0
x[9,11,1] 0
x[9,11,2] 0
x[9,11,3] 0
x[9,11,4] 0
x[9,11,5] 0
x[9,12,1] 0
x[9,12,2] 0
x[9,12,3] 0
x[9,12,4] 0
x[9,12,5] 0
x[9,13,1] 0
x[9,13,2] 0
x[9,13,3] 0
x[9,13,4] 0
x[9,13,5] 0
x[9,14,1] 0
x[9,14,2] 0
x[9,14,3] 0
x[9,14,4] 0
x[9,14,5] 0
x[9,15,1] 0
x[9,15,2] 0
x[9,15,3] 0
x[9,15,4] 0
x[9,15,5] 0
x[9,16,1] 0
x[9,16,2] 0
x[9,16,3] 0
x[9,16,4] 0
x[9,16,5] 0
x[10,1,1] 0
x[10,1,2] 0
x[10,1,3] 0
x[10,1,4] 0
x[10,1,5] 0
x[10,2,1] 0
x[10,2,2] 0
x[10,2,3] 0
x[10,2,4] 0
x[10,2,5] 0
x[10,3,1] 0
x[10,3,2] 0
x[10,3,3] 0
x[10,3,4] 0
x[10,3,5] 0
x[10,4,1] 0
x[10,4,2] 0
x[10,4,3] 0
x[10,4,4] 0
x[10,4,5] 0
x[10,5,1] 0
x[10,5,2] 0
x[10,5,3] 0
x[10,5,4] 1
x[10,5,5] 0
x[10,6,1] 0
x[10,6,2] 0
x[10,6,3] 0
x[10,6,4] 0
x[10,6,5] 0
x[10,7,1] 0
x[10,7,2] 0
x[10,7,3] 0
x[10,7,4] 0
x[10,7,5] 0
x[10,8,1] 0
x[10,8,2] 0
x[10,8,3] 0
x[10,8,4] 0
x[10,8,5] 0
x[10,9,1] 0
x[10,9,2] 0
x[10,9,3] 0
x[10,9,4] 0
x[10,9,5] 0
x[10,11,1] 0
x[10,11,2] 0
x[10,11,3] 0
x[10,11,4] 0
x[10,11,5] 0
x[10,12,1] 0
x[10,12,2] 0
x[10,12,3] 0
x[10,12,4] 0
x[10,12,5] 0
x[10,13,1] 0
x[10,13,2] 0
x[10,13,3] 0
x[10,13,4] 0
x[10,13,5] 0
x[10,14,1] 0
x[10,14,2] 0
x[10,14,3] 0
x[10,14,4] 0
x[10,14,5] 0
x[10,15,1] 0
x[10,15,2] 0
x[10,15,3] 0
x[10,15,4] 0
x[10,15,5] 0
x[10,16,1] 0
x[10,16,2] 0
x[10,16,3] 0
x[10,16,4] 0
x[10,16,5] 0
x[11,1,1] 0
x[11,1,2] 0
x[11,1,3] 0
x[11,1,4] 0
x[11,1,5] 0
x[11,2,1] 0
x[11,2,2] 0
x[11,2,3] 9.9999999999999967e-01
x[11,2,4] 0
x[11,2,5] 0
x[11,3,1] 0
x[11,3,2] 0
x[11,3,3] 0
x[11,3,4] 0
x[11,3,5] 0
x[11,4,1] 0
x[11,4,2] 0
x[11,4,3] 0
x[11,4,4] 0
x[11,4,5] 0
x[11,5,1] 0
x[11,5,2] 0
x[11,5,3] 0
x[11,5,4] 0
x[11,5,5] 0
x[11,6,1] 0
x[11,6,2] 0
x[11,6,3] 0
x[11,6,4] 0
x[11,6,5] 0
x[11,7,1] 0
x[11,7,2] 0
x[11,7,3] 0
x[11,7,4] 0
x[11,7,5] 0
x[11,8,1] 0
x[11,8,2] 0
x[11,8,3] 0
x[11,8,4] 0
x[11,8,5] 0
x[11,9,1] 0
x[11,9,2] 0
x[11,9,3] 0
x[11,9,4] 0
x[11,9,5] 0
x[11,10,1] 0
x[11,10,2] 0
x[11,10,3] 0
x[11,10,4] 0
x[11,10,5] 0
x[11,12,1] 0
x[11,12,2] 0
x[11,12,3] 0
x[11,12,4] 0
x[11,12,5] 0
x[11,13,1] 0
x[11,13,2] 0
x[11,13,3] 0
x[11,13,4] 0
x[11,13,5] 0
x[11,14,1] 0
x[11,14,2] 0
x[11,14,3] 0
x[11,14,4] 0
x[11,14,5] 0
x[11,15,1] 0
x[11,15,2] 0
x[11,15,3] 0
x[11,15,4] 0
x[11,15,5] 0
x[11,16,1] 0
x[11,16,2] 0
x[11,16,3] 0
x[11,16,4] 0
x[11,16,5] 0
x[12,1,1] 0
x[12,1,2] 0
x[12,1,3] 0
x[12,1,4] 0
x[12,1,5] 0
x[12,2,1] 0
x[12,2,2] 0
x[12,2,3] 0
x[12,2,4] 0
x[12,2,5] 0
x[12,3,1] 0
x[12,3,2] 0
x[12,3,3] 0
x[12,3,4] 0
x[12,3,5] 0
x[12,4,1] 0
x[12,4,2] 0
x[12,4,3] 0
x[12,4,4] 0
x[12,4,5] 0
x[12,5,1] 0
x[12,5,2] 0
x[12,5,3] 0
x[12,5,4] 0
x[12,5,5] 0
x[12,6,1] 0
x[12,6,2] 0
x[12,6,3] 0
x[12,6,4] 0
x[12,6,5] 0
x[12,7,1] 0
x[12,7,2] 0
x[12,7,3] 0
x[12,7,4] 0
x[12,7,5] 0
x[12,8,1] 0
x[12,8,2] 0
x[12,8,3] 0
x[12,8,4] 1
x[12,8,5] 0
x[12,9,1] 0
x[12,9,2] 0
x[12,9,3] 0
x[12,9,4] 0
x[12,9,5] 0
x[12,10,1] 0
x[12,10,2] 0
x[12,10,3] 0
x[12,10,4] 0
x[12,10,5] 0
x[12,11,1] 0
x[12,11,2] 0
x[12,11,3] 0
x[12,11,4] 0
x[12,11,5] 0
x[12,13,1] 0
x[12,13,2] 0
x[12,13,3] 0
x[12,13,4] 0
x[12,13,5] 0
x[12,14,1] 0
x[12,14,2] 0
x[12,14,3] 0
x[12,14,4] 0
x[12,14,5] 0
x[12,15,1] 0
x[12,15,2] 0
x[12,15,3] 0
x[12,15,4] 0
x[12,15,5] 0
x[12,16,1] 0
x[12,16,2] 0
x[12,16,3] 0
x[12,16,4] 0
x[12,16,5] 0
x[13,1,1] 0
x[13,1,2] 0
x[13,1,3] 0
x[13,1,4] 0
x[13,1,5] 0
x[13,2,1] 0
x[13,2,2] 0
x[13,2,3] 0
x[13,2,4] 0
x[13,2,5] 0
x[13,3,1] 0
x[13,3,2] 0
x[13,3,3] 0
x[13,3,4] 0
x[13,3,5] 0
x[13,4,1] 0
x[13,4,2] 0
x[13,4,3] 0
x[13,4,4] 0
x[13,4,5] 0
x[13,5,1] 0
x[13,5,2] 0
x[13,5,3] 0
x[13,5,4] 0
x[13,5,5] 0
x[13,6,1] 0
x[13,6,2] 0
x[13,6,3] 0
x[13,6,4] 0
x[13,6,5] 0
x[13,7,1] 0
x[13,7,2] 0
x[13,7,3] 0
x[13,7,4] 0
x[13,7,5] 0
x[13,8,1] 0
x[13,8,2] 0
x[13,8,3] 0
x[13,8,4] 0
x[13,8,5] 0
x[13,9,1] 0
x[13,9,2] 0
x[13,9,3] 0
x[13,9,4] 0
x[13,9,5] 0
x[13,10,1] 0
x[13,10,2] 0
x[13,10,3] 0
x[13,10,4] 0
x[13,10,5] 0
x[13,11,1] 0
x[13,11,2] 0
x[13,11,3] 0
x[13,11,4] 0
x[13,11,5] 0
x[13,12,1] 0
x[13,12,2] 0
x[13,12,3] 0
x[13,12,4] 0
x[13,12,5] 0
x[13,14,1] 0
x[13,14,2] 0
x[13,14,3] 1
x[13,14,4] 0
x[13,14,5] 0
x[13,15,1] 0
x[13,15,2] 0
x[13,15,3] 0
x[13,15,4] 0
x[13,15,5] 0
x[13,16,1] 0
x[13,16,2] 0
x[13,16,3] 0
x[13,16,4] 0
x[13,16,5] 0
x[14,1,1] 0
x[14,1,2] 0
x[14,1,3] 0
x[14,1,4] 0
x[14,1,5] 0
x[14,2,1] 0
x[14,2,2] 0
x[14,2,3] 0
x[14,2,4] 0
x[14,2,5] 0
x[14,3,1] 0
x[14,3,2] 0
x[14,3,3] 0
x[14,3,4] 0
x[14,3,5] 0
x[14,4,1] 0
x[14,4,2] 0
x[14,4,3] 0
x[14,4,4] 0
x[14,4,5] 0
x[14,5,1] 0
x[14,5,2] 0
x[14,5,3] 0
x[14,5,4] 0
x[14,5,5] 0
x[14,6,1] 0
x[14,6,2] 0
x[14,6,3] 0
x[14,6,4] 0
x[14,6,5] 0
x[14,7,1] 0
x[14,7,2] 0
x[14,7,3] 0
x[14,7,4] 0
x[14,7,5] 0
x[14,8,1] 0
x[14,8,2] 0
x[14,8,3] 0
x[14,8,4] 0
x[14,8,5] 0
x[14,9,1] 0
x[14,9,2] 0
x[14,9,3] 0
x[14,9,4] 0
x[14,9,5] 0
x[14,10,1] 0
x[14,10,2] 0
x[14,10,3] 0
x[14,10,4] 0
x[14,10,5] 0
x[14,11,1] 0
x[14,11,2] 0
x[14,11,3] 1
x[14,11,4] 0
x[14,11,5] 0
x[14,12,1] 0
x[14,12,2] 0
x[14,12,3] 0
x[14,12,4] 0
x[14,12,5] 0
x[14,13,1] 0
x[14,13,2] 0
x[14,13,3] 0
x[14,13,4] 0
x[14,13,5] 0
x[14,15,1] 0
x[14,15,2] 0
x[14,15,3] 0
x[14,15,4] 0
x[14,15,5] 0
x[14,16,1] 0
x[14,16,2] 0
x[14,16,3] 0
x[14,16,4] 0
x[14,16,5] 0
x[15,1,1] 0
x[15,1,2] 0
x[15,1,3] 0
x[15,1,4] 0
x[15,1,5] 0
x[15,2,1] 0
x[15,2,2] 0
x[15,2,3] 0
x[15,2,4] 0
x[15,2,5] 0
x[15,3,1] 0
x[15,3,2] 0
x[15,3,3] 0
x[15,3,4] 0
x[15,3,5] 0
x[15,4,1] 0
x[15,4,2] 0
x[15,4,3] 0
x[15,4,4] 0
x[15,4,5] 0
x[15,5,1] 0
x[15,5,2] 0
x[15,5,3] 0
x[15,5,4] 0
x[15,5,5] 0
x[15,6,1] 0
x[15,6,2] 0
x[15,6,3] 0
x[15,6,4] 0
x[15,6,5] 0
x[15,7,1] 0
x[15,7,2] 0
x[15,7,3] 0
x[15,7,4] 0
x[15,7,5] 0
x[15,8,1] 0
x[15,8,2] 0
x[15,8,3] 0
x[15,8,4] 0
x[15,8,5] 0
x[15,9,1] 0
x[15,9,2] 0
x[15,9,3] 0
x[15,9,4] 0
x[15,9,5] 0
x[15,10,1] 0
x[15,10,2] 0
x[15,10,3] 0
x[15,10,4] 0
x[15,10,5] 0
x[15,11,1] 0
x[15,11,2] 0
x[15,11,3] 0
x[15,11,4] 0
x[15,11,5] 0
x[15,12,1] 0
x[15,12,2] 0
x[15,12,3] 0
x[15,12,4] 0
x[15,12,5] 0
x[15,13,1] 0
x[15,13,2] 0
x[15,13,3] 1
x[15,13,4] 0
x[15,13,5] 0
x[15,14,1] 0
x[15,14,2] 0
x[15,14,3] 0
x[15,14,4] 0
x[15,14,5] 0
x[15,16,1] 0
x[15,16,2] 0
x[15,16,3] 0
x[15,16,4] 0
x[15,16,5] 0
